; benchmark generated from python API
(set-info :status unknown)
(declare-datatypes ((RealState 0)) (((RMk1 (rval1 Real)) (RMk2 (rval2 Real)))))
 (assert
 (exists ((|v11:0_st| RealState) (val!6644 Real) )(exists ((|v10:1_st| RealState) (val!6645 Real) )(exists ((|v9:2_st| RealState) (val!6646 Real) )(exists ((|v8:3_st| RealState) (val!6647 Real) )(forall ((|v7:4| Real) )(forall ((|v6:5| Real) )(forall ((|v5:6| Real) )(forall ((|v4:7| Real) )(exists ((|v3:8_st| RealState) (val!6648 Real) )(exists ((|v2:9_st| RealState) (val!6649 Real) )(exists ((|v1:10_st| RealState) (val!6650 Real) )(exists ((|v0:11_st| RealState) (val!6651 Real) )(let ((?x2946 (- 12.0)))
 (let ((?x220 (rval2 |v11:0_st|)))
 (let ((?x2503 (- 3.0)))
 (let ((?x2681 (* ?x2503 ?x220)))
 (let (($x3077 (<= (+ (+ (+ (* 8.0 |v7:4|) |v6:5|) (* (- 14.0) |v4:7|)) ?x2681) ?x2946)))
 (let ((?x2560 (+ (+ (+ (* 11.0 |v6:5|) (* (- 13.0) |v4:7|)) (* (- 15.0) |v4:7|)) (* 12.0 |v6:5|))))
 (let ((?x721 (rval2 |v0:11_st|)))
 (let ((?x200 (* 7.0 ?x721)))
 (let ((?x1653 (+ (+ (+ (* 14.0 ?x220) (* 8.0 (rval2 |v3:8_st|))) (* 5.0 |v7:4|)) ?x200)))
 (let ((?x1709 (- 16.0)))
 (let ((?x2102 (* ?x1709 ?x220)))
 (let ((?x1764 (+ (+ (* 5.0 (rval2 |v3:8_st|)) (* 5.0 (rval2 |v2:9_st|))) (* (- 17.0) ?x220))))
 (let (($x2464 (and (and (<= (+ ?x1764 ?x2102) 17.0) (<= ?x1653 1.0)) (or (<= ?x2560 3.0) $x3077))))
 (let ((?x1415 (- 15.0)))
 (let ((?x3214 (* 9.0 ?x721)))
 (let ((?x2833 (+ (+ (* 2.0 (rval2 |v9:2_st|)) (* 0.0 |v7:4|)) (* ?x2946 (rval2 |v10:1_st|)))))
 (let ((?x3138 (rval2 |v1:10_st|)))
 (let ((?x17 (+ (+ (+ (* 7.0 ?x220) (* (- 11.0) (rval2 |v10:1_st|))) (* 3.0 |v4:7|)) ?x3138)))
 (let ((?x2280 (* 16.0 |v6:5|)))
 (let ((?x3147 (rval2 |v9:2_st|)))
 (let ((?x2932 (* 9.0 ?x3147)))
 (let ((?x264 (+ (+ (+ (* ?x2503 (rval2 |v2:9_st|)) (* (- 5.0) (rval2 |v3:8_st|))) ?x2932) ?x2280)))
 (let ((?x864 (* ?x2503 |v4:7|)))
 (let ((?x976 (+ (+ (+ (* 19.0 |v6:5|) (* (- 18.0) (rval2 |v8:3_st|))) (* 10.0 ?x3147)) ?x864)))
 (let (($x1925 (and (and (<= ?x976 3.0) (<= ?x264 6.0)) (and (<= ?x17 2.0) (<= (+ ?x2833 ?x3214) ?x1415)))))
 (let ((?x1633 (- 7.0)))
 (let ((?x3071 (rval2 |v8:3_st|)))
 (let ((?x1642 (- 18.0)))
 (let ((?x917 (* ?x1642 ?x3071)))
 (let (($x139 (<= (+ (+ (+ (* (- 8.0) ?x3147) (* 19.0 ?x3138)) (* ?x1709 ?x3147)) ?x917) ?x1633)))
 (let ((?x2250 (rval2 |v10:1_st|)))
 (let ((?x635 (* 20.0 ?x2250)))
 (let (($x438 (<= (+ (+ (+ (* ?x1642 ?x220) (* (- 13.0) (rval2 |v3:8_st|))) ?x3147) ?x635) 1.0)))
 (let ((?x2600 (+ (+ (+ (* 5.0 (rval2 |v3:8_st|)) (* (- 6.0) |v7:4|)) (* ?x2946 |v5:6|)) (* 6.0 ?x721))))
 (let ((?x1477 (- 5.0)))
 (let ((?x71 (- 9.0)))
 (let ((?x3048 (* ?x71 ?x3138)))
 (let (($x2685 (<= (+ (+ (+ (* ?x1709 |v7:4|) (* (- 14.0) ?x721)) (* ?x1709 |v5:6|)) ?x3048) ?x1477)))
 (let ((?x599 (- 6.0)))
 (let ((?x977 (* ?x599 |v5:6|)))
 (let (($x3486 (<= (+ (+ (+ ?x635 (* (- 1.0) ?x3147)) (* 6.0 ?x3071)) ?x977) ?x1709)))
 (let ((?x1245 (+ (+ (+ (* (- 11.0) ?x220) (* 2.0 ?x3071)) (* ?x1709 ?x3147)) (* ?x1477 |v5:6|))))
 (let ((?x2397 (rval2 |v3:8_st|)))
 (let ((?x2186 (* 4.0 ?x2397)))
 (let ((?x2582 (+ (+ (+ (* (- 10.0) |v7:4|) (* (- 4.0) ?x721)) (* 7.0 ?x220)) ?x2186)))
 (let ((?x223 (* 8.0 ?x220)))
 (let ((?x2823 (+ (+ (+ (* (- 4.0) |v6:5|) (* (- 19.0) ?x3071)) (* 18.0 ?x3147)) ?x223)))
 (let (($x935 (and (and (<= ?x2823 19.0) (<= ?x2582 ?x1477)) (or (<= ?x1245 17.0) $x3486))))
 (let (($x3124 (and (and $x935 (and (and $x2685 (<= ?x2600 9.0)) (and $x438 $x139))) (and $x1925 $x2464))))
 (let ((?x2749 (- 17.0)))
 (let ((?x3363 (+ (+ (+ (* (- 2.0) ?x220) (* 6.0 |v5:6|)) (* 3.0 ?x721)) (* ?x1642 (rval2 |v2:9_st|)))))
 (let ((?x2572 (- 4.0)))
 (let ((?x3109 (* 19.0 ?x3138)))
 (let (($x2613 (<= (+ (+ (+ (* ?x1477 ?x2250) (* 12.0 ?x2397)) (* 12.0 |v4:7|)) ?x3109) ?x2572)))
 (let ((?x2348 (- 20.0)))
 (let ((?x273 (rval2 |v2:9_st|)))
 (let ((?x129 (* 13.0 ?x273)))
 (let ((?x3201 (+ (+ (+ (* (- 11.0) ?x3138) (* ?x1477 ?x3138)) (* (- 10.0) ?x3147)) ?x129)))
 (let (($x2497 (and (<= (+ (+ (+ (* 15.0 ?x3071) (* 7.0 ?x220)) ?x917) ?x2102) 5.0) (<= ?x3201 ?x2348))))
 (let ((?x1261 (* 20.0 |v5:6|)))
 (let ((?x1566 (+ (+ (+ (* (- 10.0) ?x2250) (* ?x2572 ?x2397)) (* (- 10.0) ?x2397)) ?x1261)))
 (let (($x972 (<= (+ (+ (+ (* ?x2572 |v6:5|) (* ?x2503 ?x3138)) ?x3214) (* 9.0 ?x3071)) 8.0)))
 (let ((?x2023 (+ (+ (+ (* 7.0 ?x2250) (* 12.0 |v4:7|)) (* 20.0 ?x220)) (* ?x599 ?x3071))))
 (let (($x1065 (<= (+ (+ (+ (* (- 1.0) ?x3071) (* ?x1633 ?x2250)) (* 16.0 ?x2250)) ?x129) ?x2946)))
 (let (($x2419 (and (and (and $x1065 (<= ?x2023 ?x1709)) (or $x972 (<= ?x1566 3.0))) (and $x2497 (and $x2613 (<= ?x3363 ?x2749))))))
 (let (($x1423 (<= (+ (+ (+ (* 5.0 ?x2250) ?x2250) (* 16.0 ?x2250)) (* 19.0 |v6:5|)) 3.0)))
 (let ((?x2425 (* 13.0 ?x3147)))
 (let (($x2017 (<= (+ (+ (+ (* ?x1633 ?x220) (* (- 11.0) ?x3071)) (* 13.0 |v6:5|)) ?x2425) 17.0)))
 (let (($x2912 (<= (+ (+ (+ (* ?x2749 |v5:6|) ?x917) (* 2.0 |v7:4|)) (* 6.0 |v5:6|)) 11.0)))
 (let ((?x2096 (- 10.0)))
 (let ((?x910 (* ?x2096 ?x3138)))
 (let (($x1172 (<= (+ (+ (+ (* 0.0 |v4:7|) (* ?x1415 ?x3147)) (* ?x1709 ?x2250)) ?x910) ?x2348)))
 (let ((?x3341 (+ (+ (+ (* 3.0 ?x3138) (* 3.0 |v5:6|)) (* ?x2572 |v7:4|)) (* 0.0 ?x273))))
 (let ((?x3403 (+ (+ (+ (* 2.0 ?x3147) (* ?x1709 ?x3147)) (* 16.0 ?x721)) (* ?x2348 ?x3147))))
 (let ((?x696 (* 9.0 |v6:5|)))
 (let (($x2994 (<= (+ (+ (+ (* 16.0 ?x2397) (* 13.0 ?x3138)) (* 17.0 |v6:5|)) ?x696) 2.0)))
 (let ((?x2748 (* 6.0 ?x3147)))
 (let (($x3323 (<= (+ (+ (+ (* (- 19.0) ?x3147) (* ?x1709 ?x3147)) (* 2.0 ?x2397)) ?x2748) 4.0)))
 (let (($x1474 (and (and (and $x3323 $x2994) (and (<= ?x3403 9.0) (<= ?x3341 ?x71))) (and (and $x1172 $x2912) (and $x2017 $x1423)))))
 (let ((?x2145 (+ (+ (+ (* (- 8.0) |v4:7|) (* (- 13.0) ?x273)) (* ?x1709 |v4:7|)) (* (- 19.0) ?x2250))))
 (let ((?x2775 (* 12.0 ?x721)))
 (let (($x1468 (<= (+ (+ (+ (* 5.0 ?x2250) (* ?x599 ?x273)) (* 4.0 ?x721)) ?x2775) ?x2749)))
 (let (($x3039 (<= (+ (+ (+ (* 0.0 ?x220) (* ?x599 |v6:5|)) ?x3048) (* 14.0 ?x721)) 4.0)))
 (let (($x1099 (<= (+ (+ (+ (* 18.0 |v6:5|) (* 12.0 ?x220)) ?x3109) (* 19.0 ?x2250)) ?x2572)))
 (let ((?x1393 (+ (+ (+ (* ?x71 |v5:6|) (* 6.0 ?x220)) (* 6.0 ?x2397)) (* (- 1.0) |v7:4|))))
 (let ((?x1923 (* 20.0 |v4:7|)))
 (let ((?x3148 (+ (+ (+ (* (- 14.0) |v6:5|) (* 6.0 ?x3138)) (* 15.0 ?x220)) ?x1923)))
 (let ((?x728 (* 8.0 ?x3071)))
 (let (($x2352 (<= (+ (+ (+ (* 14.0 ?x3147) (* 10.0 ?x220)) (* 2.0 |v4:7|)) ?x728) 20.0)))
 (let (($x1082 (and $x2352 (<= (+ (+ (+ (* 13.0 |v5:6|) ?x1261) ?x3138) (* 11.0 |v7:4|)) ?x71))))
 (let (($x1662 (and (and $x1082 (or (<= ?x3148 13.0) (<= ?x1393 ?x599))) (and (and $x1099 $x3039) (and $x1468 (<= ?x2145 3.0))))))
 (let (($x1053 (<= (+ (+ (+ ?x2681 ?x728) (* 13.0 ?x3138)) (* (- 11.0) |v5:6|)) 14.0)))
 (let ((?x3088 (* 11.0 |v7:4|)))
 (let ((?x3029 (+ (+ (+ (* ?x1633 |v4:7|) (* (- 8.0) ?x273)) (* (- 1.0) |v6:5|)) ?x3088)))
 (let ((?x1774 (- 11.0)))
 (let ((?x2265 (+ (+ (+ (* (- 13.0) |v4:7|) (* 15.0 ?x3071)) (* ?x2096 ?x721)) (* ?x1633 ?x2397))))
 (let (($x348 (<= (+ (+ (+ (* ?x2749 |v7:4|) (* (- 13.0) ?x2397)) (* 5.0 ?x273)) ?x2681) 10.0)))
 (let ((?x496 (- 19.0)))
 (let ((?x1838 (* 13.0 ?x2397)))
 (let (($x2422 (<= (+ (+ (+ (* ?x1633 ?x3147) (* (- 13.0) ?x220)) (* 13.0 ?x721)) ?x1838) ?x496)))
 (let ((?x2006 (+ (+ (+ (* (- 14.0) ?x220) (* 17.0 ?x273)) (* 5.0 ?x220)) (* (- 13.0) ?x3147))))
 (let (($x324 (<= (+ (+ (+ ?x910 ?x2186) (* (- 13.0) ?x2397)) (* 10.0 |v7:4|)) 9.0)))
 (let ((?x337 (+ (+ (+ (* (- 1.0) ?x3138) (* (- 8.0) |v5:6|)) (* 13.0 |v7:4|)) ?x2748)))
 (let (($x1950 (and (and (and (<= ?x337 ?x2348) $x324) (and (<= ?x2006 5.0) $x2422)) (and (and $x348 (<= ?x2265 ?x1774)) (and (<= ?x3029 ?x2749) $x1053)))))
 (let ((?x441 (+ (+ (+ (* ?x1709 ?x721) (* 5.0 ?x721)) (* ?x2946 ?x2397)) (* ?x2503 |v6:5|))))
 (let (($x3065 (<= (+ (+ (+ (* ?x1633 ?x3138) (* ?x2503 |v7:4|)) ?x2932) (* 4.0 ?x2250)) 10.0)))
 (let ((?x2200 (* 3.0 ?x3147)))
 (let (($x1917 (<= (+ (+ (+ (* 7.0 ?x273) (* 5.0 ?x220)) (* 16.0 ?x2397)) ?x2200) 6.0)))
 (let ((?x1960 (* 9.0 ?x2250)))
 (let (($x2088 (<= (+ (+ (+ (* (- 13.0) |v4:7|) ?x2775) (* 5.0 ?x3071)) ?x1960) ?x1633)))
 (let (($x552 (<= (+ (+ (+ (* 11.0 ?x3147) ?x223) (* 18.0 ?x3071)) (* ?x1774 ?x220)) 4.0)))
 (let ((?x2655 (+ (+ (+ (* ?x2572 |v4:7|) (* ?x2749 |v5:6|)) (* ?x2348 ?x3071)) (* 5.0 ?x3147))))
 (let ((?x1319 (- 13.0)))
 (let ((?x2297 (+ (+ (+ (* 3.0 ?x3071) (* 3.0 |v7:4|)) (* 12.0 |v7:4|)) (* ?x599 ?x3147))))
 (let (($x404 (<= (+ (+ (+ (* 15.0 ?x3138) (* 20.0 |v7:4|)) (* 7.0 |v4:7|)) ?x220) 16.0)))
 (let (($x3070 (or (and (and $x404 (<= ?x2297 ?x1319)) (and (<= ?x2655 11.0) $x552)) (and (and $x2088 $x1917) (or $x3065 (<= ?x441 14.0))))))
 (let ((?x611 (+ (+ (+ (* 8.0 ?x721) (* ?x1415 |v4:7|)) (* 7.0 ?x220)) (* (- 2.0) ?x3147))))
 (let ((?x1197 (+ (+ (+ (* ?x599 ?x220) (* (- 8.0) ?x3147)) (* (- 8.0) ?x2250)) (* 12.0 ?x3138))))
 (let ((?x672 (+ (+ (+ (* 18.0 |v6:5|) (* ?x2096 ?x2250)) (* (- 1.0) ?x3138)) (* ?x2348 ?x721))))
 (let ((?x30 (* ?x1774 |v5:6|)))
 (let (($x2219 (<= (+ (+ (+ (* (- 2.0) ?x3138) (* ?x71 ?x220)) (* 18.0 ?x3147)) ?x30) ?x1633)))
 (let ((?x316 (+ (+ (+ (* ?x1319 ?x3138) (* (- 14.0) ?x3138)) (* ?x1477 |v7:4|)) (* 0.0 |v6:5|))))
 (let (($x1235 (and (<= (+ (+ (+ ?x3109 (* 14.0 ?x2250)) (* 0.0 ?x721)) ?x864) 5.0) (<= ?x316 10.0))))
 (let ((?x2597 (* 5.0 |v7:4|)))
 (let ((?x2373 (+ (+ (+ (* 6.0 ?x2397) (* (- 8.0) |v5:6|)) (* (- 8.0) ?x3138)) ?x2597)))
 (let ((?x1369 (* 9.0 ?x2397)))
 (let (($x2482 (<= (+ (+ (+ (* 3.0 ?x220) (* ?x1642 |v6:5|)) (* ?x2572 ?x3071)) ?x1369) ?x2503)))
 (let (($x601 (and (and (and $x2482 (<= ?x2373 ?x2946)) $x1235) (and (or $x2219 (<= ?x672 ?x1477)) (and (<= ?x1197 ?x2946) (<= ?x611 ?x1774))))))
 (let (($x2213 (and (and (and $x601 $x3070) (and $x1950 $x1662)) (and (and $x1474 $x2419) $x3124))))
 (let (($x1161 (not (= |v0:11_st| (RMk1 val!6651)))))
 (let (($x1272 (not (= |v1:10_st| (RMk1 val!6650)))))
 (let (($x1346 (not (= |v2:9_st| (RMk1 val!6649)))))
 (let (($x2005 (not (= |v3:8_st| (RMk1 val!6648)))))
 (let (($x1367 (not (= |v8:3_st| (RMk1 val!6647)))))
 (let (($x3058 (not (= |v9:2_st| (RMk1 val!6646)))))
 (let (($x1294 (not (= |v10:1_st| (RMk1 val!6645)))))
 (let (($x2915 (not (= |v11:0_st| (RMk1 val!6644)))))
 (and $x2915 $x1294 $x3058 $x1367 $x2005 $x1346 $x1272 $x1161 $x2213)))))))))))))))))))))))))))))))))))))))))))))))))))))))))))))))))))))))))))))))))))))))))))))))))))))))))))))))))))))))))))))))))))))))))))
 )
 )
 )
 )
 )
 )
 )
 )
 )
 )
 )
 )
(check-sat)
